20 10
67 73 60 81 65 77 86 68 69 76
12 21 26 29 18 48 19 32 16 27
83 86 72 66 65 77 76 79 79 80
61 33 37 26 52 47 58 45 39 42
72 86 84 85 78 78 78 84 88 86
3 2 11 5 2 4 4 3 8 2
83 83 85 88 74 91 79 72 69 55
13 12 16 16 23 7 38 18 19 18
92 96 97 95 98 98 91 96 94 86
52 28 46 42 60 57 39 47 50 54
72 56 66 58 37 73 64 36 43 54
7 14 11 12 25 9 6 14 5 18
94 97 98 93 98 88 99 98 99 99
45 55 62 44 54 33 55 56 48 51
85 82 87 79 78 84 92 62 76 79
59 58 80 57 64 64 77 74 68 79
25 48 18 52 18 33 48 40 22 23
5 24 7 7 13 10 11 14 12 8
64 84 75 75 73 51 56 82 89 61
28 50 44 49 52 27 34 49 49 30
